100 152986
85 47 39 17 21 26 19 48 57 70 53 6 72 98 22 31 14 38 18 45 37 62 9 92 56 68 99 90 27 77 71 2 78 40 66 10 93 36 91 7 54 11 16 20 84 58 81 28 55 8 29 43 65 95 24 100 23 64 5 88 13 15 79 35 32 12 50 51 33 4 96 46 30 69 44 87 89 52 73 59 97 25 49 94 41 80 3 83 75 61 42 82 1 63 86 60 74 67 76 34 
